10  607
1   5   22    7    23    35    29    
2   5   21    44    14    28    5    
3   0
4   4   31    8    13    34    
5   6   36    16    32    24    39    30    
6   5   37    27    3    9    4    
7   6   6    17    43    25    10    49    
8   7   1    11    42    47    18    19    48    
9   8   46    41    12    33    45    40    20    50    
10   4   26    38    2    15    

